experiments/eusolverbv/5/DirectTrainGenes/1101110111100001010011001000110001110000010/325_.sl

(set-logic BV)

(define-fun shr1 ((x (BitVec 64))) (BitVec 64) (bvlshr x #x0000000000000001))
(define-fun shr4 ((x (BitVec 64))) (BitVec 64) (bvlshr x #x0000000000000004))
(define-fun shr16 ((x (BitVec 64))) (BitVec 64) (bvlshr x #x0000000000000010))
(define-fun shl1 ((x (BitVec 64))) (BitVec 64) (bvshl x #x0000000000000001))
(define-fun if0 ((x (BitVec 64)) (y (BitVec 64)) (z (BitVec 64))) (BitVec 64) (ite (= x #x0000000000000001) y z))
(define-fun func26  ((A (BitVec 64)) ) (BitVec 64) (bvand A  #x0000000000000001 ))
(define-fun func27  ((A (BitVec 64)) (B (BitVec 64)) (C (BitVec 64)) ) (BitVec 64) (bvand (bvlshr B  C ) A ))
(define-fun func28  ((A (BitVec 64)) (B (BitVec 64)) ) (BitVec 64) (bvand (bvlshr B  #x0000000000000001 ) A ))
(define-fun func29  ((A (BitVec 64)) (B (BitVec 64)) ) (BitVec 64) (bvand (bvlshr B  #x0000000000000010 ) A ))
(define-fun func30  ((A (BitVec 64)) (B (BitVec 64)) ) (BitVec 64) (bvand (bvlshr B  #x0000000000000004 ) A ))
(define-fun func31  ((A (BitVec 64)) (B (BitVec 64)) (C (BitVec 64)) (D (BitVec 64)) ) (BitVec 64) (bvand (bvlshr (bvlshr C  D ) B ) A ))
(define-fun func32  ((A (BitVec 64)) (B (BitVec 64)) ) (BitVec 64) (bvand (bvlshr A  B ) #x0000000000000001 ))
(define-fun func33  ((A (BitVec 64)) (B (BitVec 64)) ) (BitVec 64) (bvlshr A  B ))
(define-fun func34  ((A (BitVec 64)) (B (BitVec 64)) (C (BitVec 64)) ) (BitVec 64) (bvlshr (bvlshr B  C ) A ))
(define-fun func35  ((A (BitVec 64)) (B (BitVec 64)) ) (BitVec 64) (bvlshr (bvlshr B  #x0000000000000010 ) A ))
(define-fun func36  ((A (BitVec 64)) (B (BitVec 64)) ) (BitVec 64) (bvlshr (bvlshr B  #x0000000000000004 ) A ))
(define-fun func37  ((A (BitVec 64)) (B (BitVec 64)) (C (BitVec 64)) (D (BitVec 64)) ) (BitVec 64) (bvlshr (bvlshr (bvlshr C  D ) B ) A ))
(define-fun func38  ((A (BitVec 64)) (B (BitVec 64)) (C (BitVec 64)) ) (BitVec 64) (bvlshr (bvlshr (bvlshr C  #x0000000000000010 ) B ) A ))
(define-fun func39  ((A (BitVec 64)) (B (BitVec 64)) ) (BitVec 64) (bvlshr (bvlshr A  B ) #x0000000000000001 ))
(define-fun func40  ((A (BitVec 64)) (B (BitVec 64)) ) (BitVec 64) (bvlshr (bvlshr A  B ) #x0000000000000004 ))
(define-fun func41  ((A (BitVec 64)) (B (BitVec 64)) (C (BitVec 64)) ) (BitVec 64) (bvlshr (bvshl B  C ) A ))
(define-fun func42  ((A (BitVec 64)) (B (BitVec 64)) ) (BitVec 64) (bvlshr (bvshl B  #x0000000000000001 ) A ))
(define-fun func43  ((A (BitVec 64)) (B (BitVec 64)) (C (BitVec 64)) ) (BitVec 64) (bvlshr (bvadd B  C ) A ))
(define-fun func44  ((A (BitVec 64)) (B (BitVec 64)) ) (BitVec 64) (bvlshr (bvnot B ) A ))
(define-fun func45  ((A (BitVec 64)) ) (BitVec 64) (bvlshr (bvnot A ) #x0000000000000010 ))
(define-fun func47  ((A (BitVec 64)) (B (BitVec 64)) (C (BitVec 64)) ) (BitVec 64) (bvshl (bvlshr B  C ) A ))
(define-fun func48  ((A (BitVec 64)) (B (BitVec 64)) ) (BitVec 64) (bvshl (bvlshr B  #x0000000000000001 ) A ))
(define-fun func49  ((A (BitVec 64)) (B (BitVec 64)) ) (BitVec 64) (bvshl (bvlshr A  B ) #x0000000000000001 ))
(define-fun func50  ((A (BitVec 64)) (B (BitVec 64)) (C (BitVec 64)) ) (BitVec 64) (bvshl (bvshl B  C ) A ))
(define-fun func51  ((A (BitVec 64)) (B (BitVec 64)) ) (BitVec 64) (bvshl (bvshl B  #x0000000000000001 ) A ))
(define-fun func52  ((A (BitVec 64)) (B (BitVec 64)) ) (BitVec 64) (bvshl (bvshl A  B ) #x0000000000000001 ))
(define-fun func53  ((A (BitVec 64)) (B (BitVec 64)) ) (BitVec 64) (bvshl (bvnot B ) A ))
(define-fun func54  ((A (BitVec 64)) ) (BitVec 64) (bvshl (bvnot A ) #x0000000000000001 ))
(define-fun func55  ((A (BitVec 64)) ) (BitVec 64) (bvadd A  #x0000000000000001 ))
(define-fun func56  ((A (BitVec 64)) (B (BitVec 64)) (C (BitVec 64)) ) (BitVec 64) (bvadd (bvlshr B  C ) A ))
(define-fun func57  ((A (BitVec 64)) ) (BitVec 64) (bvor A  #x0000000000000001 ))
(define-fun func58  ((A (BitVec 64)) (B (BitVec 64)) (C (BitVec 64)) ) (BitVec 64) (bvor (bvlshr B  C ) A ))
(define-fun func60  ((A (BitVec 64)) ) (BitVec 64) (bvnot (bvshl A  #x0000000000000001 )))
(synth-fun f ( (x (BitVec 64))) (BitVec 64)
(
(Start (BitVec 64) (
   #x0000000000000000
   #x0000000000000001
   x
   (func26 Start)
   (func27 Start Start Start)
   (func29 Start Start)
   (func30 Start Start)
   (func31 Start Start Start Start)
   (func33 Start Start)
   (func34 Start Start Start)
   (func35 Start Start)
   (func36 Start Start)
   (func41 Start Start Start)
   (func43 Start Start Start)
   (func47 Start Start Start)
   (func48 Start Start)
   (func51 Start Start)
   (func55 Start)
   (func56 Start Start Start)
   (shr4 Start)
   (shr16 Start)
   (bvand Start Start)
   (bvor Start Start)
   (bvxor Start Start)
   (if0 Start Start Start)
))
))
(constraint (= (f #xc759a27ca4545c9a) #x4759a27ca4545c9a))
(constraint (= (f #x1df6680c7b1045ba) #x1df6680c7b1045ba))
(constraint (= (f #xe0925b3653b0ea52) #x60925b3653b0ea52))
(constraint (= (f #xeccd2bab435fe898) #x6ccd2bab435fe898))
(constraint (= (f #x394a560305bc7c0e) #x394a560305bc7c0e))
(constraint (= (f #x7092dc36c543070a) #x7092dc36c543070a))
(constraint (= (f #x1d5d6587e826d812) #x1d5d6587e826d812))
(constraint (= (f #x7a3a194e03aba1da) #x7a3a194e03aba1da))
(constraint (= (f #x4500d17e7526faee) #x4500d17e7526faee))
(constraint (= (f #x8ffeb55f6886b650) #x0ffeb55f6886b650))
(constraint (= (f #x444c93273ab069f3) #x8899264e7560d3e6))
(constraint (= (f #x173080383836c053) #x2e610070706d80a6))
(constraint (= (f #x55ef1928a0f04a55) #xabde325141e094aa))
(constraint (= (f #xb180bd02b49bd8d1) #x63017a056937b1a2))
(constraint (= (f #x5688c0258d95af81) #xad11804b1b2b5f02))
(constraint (= (f #x0000000000000000) #x0000000000000000))
(constraint (= (f #x0d07b3fe9ae68e23) #x0d07b3fe9ae68e23))
(constraint (= (f #x497093a34348500f) #x497093a34348500f))
(constraint (= (f #x3059045a0fca170d) #x3059045a0fca170d))
(constraint (= (f #xba215baf6a0ef18f) #x3a215baf6a0ef18f))
(constraint (= (f #xc1a86766fea8c31d) #x41a86766fea8c31d))
(constraint (= (f #xbe6af6a502146c5e) #x3e6af6a502146c5e))
(constraint (= (f #x89d400d5a0c15d9e) #x09d400d5a0c15d9e))
(constraint (= (f #x92b1101cf328f414) #x12b1101cf328f414))
(constraint (= (f #x259c1d1cd7b540e6) #x259c1d1cd7b540e6))
(constraint (= (f #xed71935f7740564b) #x6d71935f7740564b))
(constraint (= (f #x2542026a5861cd87) #x2542026a5861cd87))
(constraint (= (f #x962ad76495e45769) #x162ad76495e45769))
(constraint (= (f #xf6b323e42bb3dfbf) #xed6647c85767bf7e))
(constraint (= (f #x7d7113d202061300) #x7d7113d202061300))
(constraint (= (f #x6b97301b45a6f2d6) #x6b97301b45a6f2d6))
(constraint (= (f #x0000000000000000) #x0000000000000000))
(constraint (= (f #x7f64e1d4d31d6241) #xfec9c3a9a63ac482))
(constraint (= (f #x8362da0f56e5e8bb) #x0362da0f56e5e8bb))
(constraint (= (f #x07d824451f838489) #x07d824451f838489))
(constraint (= (f #xe3b8e26dfd015c55) #x63b8e26dfd015c55))
(constraint (= (f #x25add9dd6c98988b) #x4b5bb3bad9313116))
(check-synth)
