experiments/eusolverbv/5/DirectTrainGenes/1101110111100001010011001000110001110000010/325_.out
(define-fun f ((x (BitVec 64))) (BitVec 64)
     (if0 (func26 (shr4 (shr16 x))) (if0 (func26 x) (func51 #x0000000000000000 x) (func41 #x0000000000000001 x #x0000000000000001)) (func41 #x0000000000000001 x #x0000000000000001)))
1.245254134759307
